objective value:                                   -9
t_n_0                                               1 	(obj:-1)
t_n_176                                             1 	(obj:-1)
t_n_327                                             1 	(obj:-1)
t_n_378                                             1 	(obj:-1)
t_n_587                                             1 	(obj:-1)
t_n_641                                             1 	(obj:-1)
t_n_688                                             1 	(obj:-1)
t_n_724                                             1 	(obj:-1)
t_n_884                                             1 	(obj:-1)
